177
0 42 44 141 158 157 150 21 10 27 
31 105 88 147 24 12 126 39 153 15 
98 43 109 132 23 11 22 69 114 161 
135 122 128 48 133 54 155 63 159 143 
173 53 38 62 25 30 5 70 145 166 
41 19 138 60 107 170 139 6 16 66 
8 115 67 103 171 61 46 28 64 58 
152 99 90 55 4 82 120 36 3 32 
148 34 165 51 118 174 96 129 123 111 
81 175 131 18 83 134 136 80 124 1 
156 151 26 101 17 49 144 146 47 40 
137 20 108 77 50 110 92 76 125 168 
102 172 97 162 91 140 116 35 57 86 
78 169 7 112 95 45 149 56 106 130 
13 71 2 75 127 142 73 79 89 29 
85 154 87 37 9 119 93 59 167 104 
74 160 68 33 117 113 100 65 164 176 
84 163 121 52 14 72 94 
